&CONTROL
  calculation = 'scf'
  etot_conv_thr =   2.0000000000d-05
  forc_conv_thr =   1.0000000000d-04
  outdir = './out/'
  prefix = 'aiida'
  pseudo_dir = './pseudo/'
  tprnfor = .true.
  tstress = .true.
  verbosity = 'high'
/
&SYSTEM
  degauss =   2.0000000000d-02
  ecutrho =   2.0000000000d+02
  ecutwfc =   5.0000000000d+01
  ibrav = 0
  nat = 2
  nosym = .false.
  ntyp = 1
  occupations = 'smearing'
  smearing = 'cold'
/
&ELECTRONS
  conv_thr =   4.0000000000d-10
  electron_maxstep = 80
  mixing_beta =   4.0000000000d-01
/
ATOMIC_SPECIES
Ag     107.8682 Ag.upf
ATOMIC_POSITIONS crystal
Ag           0.3333333333       0.6666666667       0.2500000000
Ag           0.6666666667       0.3333333333       0.7500000000
K_POINTS automatic
8 8 4 0 0 0
CELL_PARAMETERS angstrom
      2.8474169615       0.0000000000       0.0000000000
     -1.4237084807       2.4659354238       0.0000000000
      0.0000000000       0.0000000000       4.7302034720
